experiment/data/hgs-res/Vrp-Set-X-n176/Vrp-Set-X-n176-hgs/0.hgs1.vrp
NAME : 0
COMMENT : CVRP Instance
TYPE : CVRP
DIMENSION : 176
EDGE_WEIGHT_TYPE : EUC_2D
CAPACITY : 142
NODE_COORD_SECTION
1	0.0	0.0
2	628.0	103.0
3	291.0	573.0
4	129.0	447.0
5	973.0	643.0
6	830.0	868.0
7	398.0	563.0
8	731.0	423.0
9	201.0	995.0
10	167.0	174.0
11	13.0	605.0
12	446.0	262.0
13	229.0	774.0
14	740.0	231.0
15	21.0	546.0
16	224.0	615.0
17	605.0	837.0
18	473.0	759.0
19	758.0	880.0
20	93.0	900.0
21	580.0	935.0
22	622.0	494.0
23	513.0	236.0
24	659.0	797.0
25	606.0	204.0
26	267.0	688.0
27	28.0	888.0
28	606.0	754.0
29	841.0	676.0
30	823.0	611.0
31	1.0	247.0
32	195.0	486.0
33	644.0	771.0
34	524.0	45.0
35	581.0	366.0
36	769.0	471.0
37	78.0	800.0
38	940.0	790.0
39	867.0	441.0
40	243.0	453.0
41	410.0	464.0
42	465.0	161.0
43	417.0	304.0
44	616.0	944.0
45	609.0	356.0
46	822.0	489.0
47	738.0	932.0
48	462.0	718.0
49	847.0	459.0
50	563.0	619.0
51	792.0	940.0
52	434.0	318.0
53	1000.0	647.0
54	566.0	413.0
55	492.0	83.0
56	764.0	550.0
57	145.0	182.0
58	540.0	249.0
59	208.0	760.0
60	759.0	988.0
61	66.0	221.0
62	520.0	521.0
63	260.0	508.0
64	307.0	468.0
65	747.0	308.0
66	370.0	136.0
67	421.0	505.0
68	373.0	597.0
69	876.0	881.0
70	281.0	18.0
71	419.0	69.0
72	502.0	242.0
73	343.0	764.0
74	275.0	610.0
75	434.0	161.0
76	314.0	40.0
77	744.0	675.0
78	698.0	364.0
79	600.0	881.0
80	9.0	893.0
81	875.0	724.0
82	728.0	253.0
83	502.0	969.0
84	867.0	464.0
85	237.0	907.0
86	868.0	263.0
87	680.0	306.0
88	740.0	688.0
89	534.0	615.0
90	450.0	898.0
91	126.0	415.0
92	565.0	260.0
93	172.0	126.0
94	137.0	674.0
95	789.0	958.0
96	853.0	147.0
97	762.0	111.0
98	416.0	626.0
99	63.0	237.0
100	194.0	75.0
101	616.0	133.0
102	104.0	804.0
103	304.0	699.0
104	758.0	40.0
105	249.0	141.0
106	848.0	770.0
107	316.0	426.0
108	791.0	803.0
109	884.0	980.0
110	618.0	107.0
111	858.0	644.0
112	116.0	388.0
113	939.0	880.0
114	217.0	912.0
115	138.0	217.0
116	639.0	588.0
117	542.0	965.0
118	775.0	294.0
119	325.0	154.0
120	839.0	459.0
121	21.0	751.0
122	248.0	883.0
123	34.0	101.0
124	274.0	824.0
125	408.0	641.0
126	923.0	320.0
127	838.0	846.0
128	83.0	772.0
129	938.0	432.0
130	913.0	766.0
131	758.0	816.0
132	481.0	156.0
133	548.0	809.0
134	660.0	393.0
135	773.0	579.0
136	261.0	97.0
137	380.0	849.0
138	433.0	893.0
139	312.0	347.0
140	295.0	480.0
141	277.0	519.0
142	833.0	970.0
143	760.0	470.0
144	33.0	455.0
145	289.0	176.0
146	283.0	845.0
147	953.0	937.0
148	2.0	939.0
149	164.0	71.0
150	539.0	756.0
151	679.0	880.0
152	309.0	113.0
153	857.0	842.0
154	184.0	455.0
155	181.0	70.0
156	136.0	928.0
157	23.0	17.0
158	127.0	710.0
159	657.0	422.0
160	248.0	593.0
161	525.0	519.0
162	109.0	805.0
163	754.0	487.0
164	484.0	90.0
165	923.0	157.0
166	195.0	38.0
167	74.0	961.0
168	261.0	663.0
169	984.0	135.0
170	281.0	227.0
171	673.0	176.0
172	78.0	322.0
173	177.0	543.0
174	590.0	199.0
175	559.0	609.0
176	9.0	343.0
DEMAND_SECTION
1	0
2	94
3	65
4	69
5	89
6	74
7	95
8	87
9	96
10	56
11	94
12	79
13	91
14	75
15	54
16	97
17	93
18	81
19	100
20	75
21	56
22	71
23	100
24	54
25	100
26	62
27	51
28	58
29	79
30	65
31	52
32	65
33	65
34	59
35	77
36	89
37	66
38	71
39	10
40	10
41	1
42	9
43	4
44	9
45	8
46	4
47	8
48	7
49	9
50	10
51	6
52	2
53	6
54	9
55	5
56	3
57	4
58	5
59	6
60	6
61	6
62	1
63	8
64	9
65	6
66	5
67	8
68	5
69	9
70	2
71	3
72	9
73	9
74	4
75	2
76	2
77	10
78	9
79	9
80	8
81	8
82	9
83	9
84	6
85	6
86	8
87	9
88	7
89	10
90	10
91	1
92	7
93	4
94	1
95	6
96	5
97	5
98	8
99	4
100	6
101	7
102	10
103	10
104	6
105	6
106	8
107	7
108	8
109	8
110	2
111	8
112	7
113	9
114	6
115	10
116	2
117	4
118	3
119	2
120	5
121	1
122	1
123	7
124	6
125	4
126	5
127	9
128	4
129	2
130	6
131	4
132	4
133	9
134	1
135	3
136	4
137	4
138	4
139	9
140	9
141	3
142	6
143	6
144	4
145	4
146	3
147	3
148	1
149	3
150	8
151	9
152	2
153	9
154	1
155	9
156	7
157	8
158	7
159	7
160	8
161	9
162	10
163	3
164	2
165	9
166	8
167	6
168	7
169	7
170	5
171	3
172	9
173	9
174	4
175	7
176	4
DEPOT_SECTION
1
-1
EOF
