experiment/data/hgs-res/Vrp-Set-X-n176/Vrp-Set-X-n176-hgs/0.hgs1.tour
Route #1: 75 70 54 109 1 100 163 165
Route #2: 13 170 33 69
Route #3: 4 52 128 125 85 168 164 95 96 103
Route #4: 148 99 135 151 65 74 41 173 24 131
Route #5: 156 104 144 71 22 118 154
Route #6: 57 91 86 64 77 7 158 44 92
Route #7: 133 142 35 45 119 48 83 38 117 81
Route #8: 162 29 134 21
Route #9: 9 169 11
Route #10: 42 34 53 30
Route #11: 40 23 28 110
Route #12: 61 87 105 152 68 5 126 107 49 174
Route #13: 51 55 80 129 37 112 146 108 141 50 94 59 46
Route #14: 160 32 27 88
Route #15: 115 76 130 18 150 132 149
Route #16: 114 106 63 6 66 138 56
Route #17: 67 17 20
Route #18: 16 78 43 116 82 89 137 136
Route #19: 140 2 73 25 167
Route #20: 139 97 124 47 72 12 58 157 93
Route #21: 39 62 159 15 172 90 171
Route #22: 153 31 3 111
Route #23: 127 155 8 113 84 121 145 123 102
Route #24: 175 10 143 98 60 122
Route #25: 14 36 101 161
Route #26: 19 166 147 79 26 120
Cost 47812.2
